c File: flat50_3_0.col
c
c SOURCE: Joseph Culberson (joe@cs.ualberta.ca)
c DESCRIPTION: Quasi-random coloring problem
c              generated with flatness = 0
c                             probability = 0.139
c                             known coloring = 3
c                             random seed = 1694
c              Creation Date:  Tue Jun  9 12:15:34 1998
c Maximum degree = 8 Minimum degree = 1
c p edge 50 115
c cnf created by edge2cnf
p cnf 150 545
-1 -2 0
-1 -3 0
-2 -3 0
1 2 3 0
-4 -5 0
-4 -6 0
-5 -6 0
4 5 6 0
-7 -8 0
-7 -9 0
-8 -9 0
7 8 9 0
-10 -11 0
-10 -12 0
-11 -12 0
10 11 12 0
-13 -14 0
-13 -15 0
-14 -15 0
13 14 15 0
-16 -17 0
-16 -18 0
-17 -18 0
16 17 18 0
-19 -20 0
-19 -21 0
-20 -21 0
19 20 21 0
-22 -23 0
-22 -24 0
-23 -24 0
22 23 24 0
-25 -26 0
-25 -27 0
-26 -27 0
25 26 27 0
-28 -29 0
-28 -30 0
-29 -30 0
28 29 30 0
-31 -32 0
-31 -33 0
-32 -33 0
31 32 33 0
-34 -35 0
-34 -36 0
-35 -36 0
34 35 36 0
-37 -38 0
-37 -39 0
-38 -39 0
37 38 39 0
-40 -41 0
-40 -42 0
-41 -42 0
40 41 42 0
-43 -44 0
-43 -45 0
-44 -45 0
43 44 45 0
-46 -47 0
-46 -48 0
-47 -48 0
46 47 48 0
-49 -50 0
-49 -51 0
-50 -51 0
49 50 51 0
-52 -53 0
-52 -54 0
-53 -54 0
52 53 54 0
-55 -56 0
-55 -57 0
-56 -57 0
55 56 57 0
-58 -59 0
-58 -60 0
-59 -60 0
58 59 60 0
-61 -62 0
-61 -63 0
-62 -63 0
61 62 63 0
-64 -65 0
-64 -66 0
-65 -66 0
64 65 66 0
-67 -68 0
-67 -69 0
-68 -69 0
67 68 69 0
-70 -71 0
-70 -72 0
-71 -72 0
70 71 72 0
-73 -74 0
-73 -75 0
-74 -75 0
73 74 75 0
-76 -77 0
-76 -78 0
-77 -78 0
76 77 78 0
-79 -80 0
-79 -81 0
-80 -81 0
79 80 81 0
-82 -83 0
-82 -84 0
-83 -84 0
82 83 84 0
-85 -86 0
-85 -87 0
-86 -87 0
85 86 87 0
-88 -89 0
-88 -90 0
-89 -90 0
88 89 90 0
-91 -92 0
-91 -93 0
-92 -93 0
91 92 93 0
-94 -95 0
-94 -96 0
-95 -96 0
94 95 96 0
-97 -98 0
-97 -99 0
-98 -99 0
97 98 99 0
-100 -101 0
-100 -102 0
-101 -102 0
100 101 102 0
-103 -104 0
-103 -105 0
-104 -105 0
103 104 105 0
-106 -107 0
-106 -108 0
-107 -108 0
106 107 108 0
-109 -110 0
-109 -111 0
-110 -111 0
109 110 111 0
-112 -113 0
-112 -114 0
-113 -114 0
112 113 114 0
-115 -116 0
-115 -117 0
-116 -117 0
115 116 117 0
-118 -119 0
-118 -120 0
-119 -120 0
118 119 120 0
-121 -122 0
-121 -123 0
-122 -123 0
121 122 123 0
-124 -125 0
-124 -126 0
-125 -126 0
124 125 126 0
-127 -128 0
-127 -129 0
-128 -129 0
127 128 129 0
-130 -131 0
-130 -132 0
-131 -132 0
130 131 132 0
-133 -134 0
-133 -135 0
-134 -135 0
133 134 135 0
-136 -137 0
-136 -138 0
-137 -138 0
136 137 138 0
-139 -140 0
-139 -141 0
-140 -141 0
139 140 141 0
-142 -143 0
-142 -144 0
-143 -144 0
142 143 144 0
-145 -146 0
-145 -147 0
-146 -147 0
145 146 147 0
-148 -149 0
-148 -150 0
-149 -150 0
148 149 150 0
-100 -1 0
-101 -2 0
-102 -3 0
-106 -1 0
-107 -2 0
-108 -3 0
-61 -4 0
-62 -5 0
-63 -6 0
-67 -4 0
-68 -5 0
-69 -6 0
-79 -4 0
-80 -5 0
-81 -6 0
-88 -4 0
-89 -5 0
-90 -6 0
-85 -7 0
-86 -8 0
-87 -9 0
-100 -7 0
-101 -8 0
-102 -9 0
-115 -7 0
-116 -8 0
-117 -9 0
-148 -7 0
-149 -8 0
-150 -9 0
-67 -10 0
-68 -11 0
-69 -12 0
-73 -10 0
-74 -11 0
-75 -12 0
-88 -10 0
-89 -11 0
-90 -12 0
-97 -10 0
-98 -11 0
-99 -12 0
-112 -10 0
-113 -11 0
-114 -12 0
-130 -10 0
-131 -11 0
-132 -12 0
-133 -10 0
-134 -11 0
-135 -12 0
-52 -13 0
-53 -14 0
-54 -15 0
-73 -13 0
-74 -14 0
-75 -15 0
-79 -13 0
-80 -14 0
-81 -15 0
-118 -13 0
-119 -14 0
-120 -15 0
-136 -13 0
-137 -14 0
-138 -15 0
-91 -16 0
-92 -17 0
-93 -18 0
-97 -16 0
-98 -17 0
-99 -18 0
-106 -16 0
-107 -17 0
-108 -18 0
-130 -16 0
-131 -17 0
-132 -18 0
-133 -16 0
-134 -17 0
-135 -18 0
-142 -16 0
-143 -17 0
-144 -18 0
-70 -19 0
-71 -20 0
-72 -21 0
-127 -19 0
-128 -20 0
-129 -21 0
-133 -19 0
-134 -20 0
-135 -21 0
-52 -22 0
-53 -23 0
-54 -24 0
-91 -22 0
-92 -23 0
-93 -24 0
-106 -22 0
-107 -23 0
-108 -24 0
-109 -22 0
-110 -23 0
-111 -24 0
-118 -22 0
-119 -23 0
-120 -24 0
-142 -22 0
-143 -23 0
-144 -24 0
-82 -25 0
-83 -26 0
-84 -27 0
-85 -25 0
-86 -26 0
-87 -27 0
-100 -25 0
-101 -26 0
-102 -27 0
-115 -25 0
-116 -26 0
-117 -27 0
-127 -25 0
-128 -26 0
-129 -27 0
-133 -25 0
-134 -26 0
-135 -27 0
-148 -25 0
-149 -26 0
-150 -27 0
-58 -28 0
-59 -29 0
-60 -30 0
-91 -28 0
-92 -29 0
-93 -30 0
-94 -28 0
-95 -29 0
-96 -30 0
-58 -31 0
-59 -32 0
-60 -33 0
-82 -31 0
-83 -32 0
-84 -33 0
-118 -34 0
-119 -35 0
-120 -36 0
-124 -34 0
-125 -35 0
-126 -36 0
-136 -34 0
-137 -35 0
-138 -36 0
-55 -37 0
-56 -38 0
-57 -39 0
-76 -37 0
-77 -38 0
-78 -39 0
-91 -37 0
-92 -38 0
-93 -39 0
-115 -37 0
-116 -38 0
-117 -39 0
-64 -40 0
-65 -41 0
-66 -42 0
-88 -40 0
-89 -41 0
-90 -42 0
-112 -40 0
-113 -41 0
-114 -42 0
-121 -40 0
-122 -41 0
-123 -42 0
-67 -43 0
-68 -44 0
-69 -45 0
-79 -43 0
-80 -44 0
-81 -45 0
-115 -43 0
-116 -44 0
-117 -45 0
-145 -43 0
-146 -44 0
-147 -45 0
-67 -46 0
-68 -47 0
-69 -48 0
-82 -46 0
-83 -47 0
-84 -48 0
-85 -46 0
-86 -47 0
-87 -48 0
-100 -46 0
-101 -47 0
-102 -48 0
-112 -46 0
-113 -47 0
-114 -48 0
-118 -46 0
-119 -47 0
-120 -48 0
-130 -46 0
-131 -47 0
-132 -48 0
-142 -46 0
-143 -47 0
-144 -48 0
-64 -49 0
-65 -50 0
-66 -51 0
-82 -49 0
-83 -50 0
-84 -51 0
-112 -49 0
-113 -50 0
-114 -51 0
-124 -49 0
-125 -50 0
-126 -51 0
-130 -49 0
-131 -50 0
-132 -51 0
-127 -52 0
-128 -53 0
-129 -54 0
-118 -55 0
-119 -56 0
-120 -57 0
-109 -58 0
-110 -59 0
-111 -60 0
-136 -58 0
-137 -59 0
-138 -60 0
-115 -61 0
-116 -62 0
-117 -63 0
-121 -61 0
-122 -62 0
-123 -63 0
-127 -61 0
-128 -62 0
-129 -63 0
-106 -64 0
-107 -65 0
-108 -66 0
-148 -64 0
-149 -65 0
-150 -66 0
-118 -67 0
-119 -68 0
-120 -69 0
-136 -67 0
-137 -68 0
-138 -69 0
-118 -70 0
-119 -71 0
-120 -72 0
-121 -70 0
-122 -71 0
-123 -72 0
-127 -70 0
-128 -71 0
-129 -72 0
-103 -73 0
-104 -74 0
-105 -75 0
-115 -73 0
-116 -74 0
-117 -75 0
-106 -76 0
-107 -77 0
-108 -78 0
-118 -76 0
-119 -77 0
-120 -78 0
-127 -76 0
-128 -77 0
-129 -78 0
-103 -79 0
-104 -80 0
-105 -81 0
-115 -79 0
-116 -80 0
-117 -81 0
-130 -79 0
-131 -80 0
-132 -81 0
-109 -82 0
-110 -83 0
-111 -84 0
-130 -82 0
-131 -83 0
-132 -84 0
-139 -82 0
-140 -83 0
-141 -84 0
-142 -82 0
-143 -83 0
-144 -84 0
-133 -85 0
-134 -86 0
-135 -87 0
-121 -88 0
-122 -89 0
-123 -90 0
-124 -88 0
-125 -89 0
-126 -90 0
-130 -91 0
-131 -92 0
-132 -93 0
-136 -91 0
-137 -92 0
-138 -93 0
-106 -94 0
-107 -95 0
-108 -96 0
-115 -94 0
-116 -95 0
-117 -96 0
-130 -94 0
-131 -95 0
-132 -96 0
-136 -94 0
-137 -95 0
-138 -96 0
-109 -97 0
-110 -98 0
-111 -99 0
-133 -97 0
-134 -98 0
-135 -99 0
-139 -97 0
-140 -98 0
-141 -99 0
